Loading AM instance...
  full instance: 620 passengers
Sampling Caso Base (n=30, seed=42)...
  category counts: {1: 4, 2: 11, 3: 13, 4: 2}
Computing miope warm-start...
  miope cost: 453208 CLP, vehicles used: 13
Building MILP...
C:\Users\benja\Downloads\Capstone\scripts\run_milp_caso_base.py:71: UserWarning: Relaxed e_i for 15 passenger(s) with infeasible pickup_from window: [2, 5, 12, 13, 14, 15, 16, 20, 21, 22, 23, 24, 25, 26, 28]
  model = TDHDARPModel(
  WARNING: relaxed pickup_from for 15 passengers: [2, 5, 12, 13, 14, 15, 16, 20, 21, 22, 23, 24, 25, 26, 28]
Solving...
Set parameter Username
Academic license - for non-commercial use only - expires 2027-04-30
Set parameter TimeLimit to value 300
Set parameter MIPGap to value 0.05
Gurobi Optimizer version 10.0.3 build v10.0.3rc0 (win64)

CPU model: AMD Ryzen 3 5300U with Radeon Graphics, instruction set [SSE2|AVX|AVX2]
Thread count: 4 physical cores, 8 logical processors, using up to 8 threads

Optimize a model with 141570 rows, 38692 columns and 558888 nonzeros
Model fingerprint: 0xeb96a2f3
Variable types: 1054 continuous, 37638 integer (36584 binary)
Coefficient statistics:
  Matrix range     [9e-01, 9e+03]
  Objective range  [2e+02, 3e+04]
  Bounds range     [1e+00, 9e+04]
  RHS range        [2e-13, 2e+04]

Warning: Completing partial solution with 37443 unfixed non-continuous variables out of 37638
User MIP start did not produce a new incumbent solution
User MIP start violates constraint r5_time_ub_4_34_0 by 360.390000000

Presolve removed 89655 rows and 22421 columns
Presolve time: 3.98s
Presolved: 51915 rows, 16271 columns, 305047 nonzeros
Variable types: 986 continuous, 15285 integer (14299 binary)

Deterministic concurrent LP optimizer: primal and dual simplex (primal and dual model)
Showing first log only...


Root simplex log...

Iteration    Objective       Primal Inf.    Dual Inf.      Time
    2134    3.9064472e+05   1.410969e+01   1.658534e+09      5s
Concurrent spin time: 0.01s

Solved with dual simplex (primal model)

Root relaxation: objective 1.590146e+05, 8489 iterations, 2.41 seconds (1.19 work units)

    Nodes    |    Current Node    |     Objective Bounds      |     Work
 Expl Unexpl |  Obj  Depth IntInf | Incumbent    BestBd   Gap | It/Node Time

     0     0 159014.600    0  700          - 159014.600      -     -    8s
     0     0 159014.600    0  689          - 159014.600      -     -    8s
     0     0 159717.200    0  725          - 159717.200      -     -    9s
Another try with MIP start
     0     0 161825.000    0  630          - 161825.000      -     -    9s
     0     0 162961.954    0  632          - 162961.954      -     -   14s
     0     0 162961.954    0  656          - 162961.954      -     -   14s
     0     0 162961.954    0  655          - 162961.954      -     -   15s
     0     0 162968.549    0  725          - 162968.549      -     -   15s
     0     0 162968.549    0  725          - 162968.549      -     -   16s
     0     0 167573.565    0  855          - 167573.565      -     -   22s
     0     0 167665.919    0  821          - 167665.919      -     -   23s
     0     0 169910.770    0 1048          - 169910.770      -     -   28s
     0     0 170176.895    0 1101          - 170176.895      -     -   29s
     0     0 170266.781    0 1068          - 170266.781      -     -   30s
     0     0 170266.781    0 1070          - 170266.781      -     -   30s
     0     0 173859.447    0 1348          - 173859.447      -     -   40s
     0     0 174863.637    0 1367          - 174863.637      -     -   45s
     0     0 174901.006    0 1395          - 174901.006      -     -   45s
     0     0 174901.274    0 1333          - 174901.274      -     -   45s
     0     0 176775.271    0 1409          - 176775.271      -     -   55s
     0     0 177377.081    0 1569          - 177377.081      -     -   60s
     0     0 177429.028    0 1642          - 177429.028      -     -   61s
     0     0 177433.222    0 1658          - 177433.222      -     -   61s
     0     0 177433.222    0 1658          - 177433.222      -     -   61s
     0     0 177854.030    0 1661          - 177854.030      -     -   66s
     0     0 177874.475    0 1778          - 177874.475      -     -   67s
     0     0 177876.100    0 1777          - 177876.100      -     -   68s
     0     0 178080.756    0 1685          - 178080.756      -     -   71s
     0     0 178092.784    0 1726          - 178092.784      -     -   72s
     0     0 178092.784    0 1730          - 178092.784      -     -   72s
     0     0 178655.511    0 1858          - 178655.511      -     -   78s
     0     0 178694.824    0 1958          - 178694.824      -     -   80s
     0     0 178697.927    0 1954          - 178697.927      -     -   80s
     0     0 179187.123    0 1888          - 179187.123      -     -   86s
     0     0 179205.773    0 1894          - 179205.773      -     -   87s
     0     0 179241.128    0 1926          - 179241.128      -     -   89s
     0     0 179241.671    0 1930          - 179241.671      -     -   90s
     0     0 179482.836    0 1817          - 179482.836      -     -   94s
     0     0 179509.835    0 1946          - 179509.835      -     -   96s
     0     0 179511.856    0 1962          - 179511.856      -     -   97s
     0     0 179858.731    0 1934          - 179858.731      -     -  103s
     0     0 179881.955    0 2049          - 179881.955      -     -  104s
     0     0 179885.301    0 2049          - 179885.301      -     -  105s
     0     0 180029.629    0 2035          - 180029.629      -     -  108s
     0     0 180038.601    0 2050          - 180038.601      -     -  109s
     0     0 180046.800    0 2071          - 180046.800      -     -  110s
     0     0 180047.154    0 2081          - 180047.154      -     -  111s
     0     0 180130.589    0 2046          - 180130.589      -     -  114s
     0     0 180142.495    0 2080          - 180142.495      -     -  115s
     0     0 180146.288    0 2101          - 180146.288      -     -  116s
     0     0 180147.515    0 2109          - 180147.515      -     -  117s
     0     0 180147.515    0 2115          - 180147.515      -     -  117s
     0     0 180186.033    0 2012          - 180186.033      -     -  120s
     0     0 180186.033    0 1984          - 180186.033      -     -  120s
     0     2 180186.216    0 1969          - 180186.216      -     -  131s
     1     2 180189.468    1 1964          - 180189.468      -   152  135s
     5     2 180216.125    3 1908          - 180199.486      -   823  141s
     7     4 180255.168    4 1930          - 180219.016      -   975  148s
     9     5 180304.839    5 1834          - 180255.414      -  1272  154s
    13     7 180350.792    6 1830          - 180310.593      -  1321  161s
    17    10 180394.731    7 1846          - 180354.298      -  1564  165s
    25    17 180599.922    9 1768          - 180354.298      -  1349  171s
    30    22 180632.384   10 1765          - 180354.298      -  1271  175s
    41    31 180677.588   14 1722          - 180354.298      -  1170  183s
    48    35 180793.160   16 1685          - 180354.298      -  1092  188s
    52    41 180865.451   17 1745          - 180354.298      -  1159  195s
    67    56 180942.866   22 1763          - 180354.298      -  1071  201s
    83    71 181112.583   28 1708          - 180354.298      -   960  210s
   103    86 181584.760   35 1640          - 180354.298      -   880  216s
   112    95 187291.718   36 1423          - 180354.298      -   903  222s
   121   105 181757.276   37 1696          - 180354.298      -   885  226s
   131   119 181791.921   39 1652          - 180354.298      -   855  230s
   156   137 189115.360   45 1345          - 180354.298      -   811  242s
   163   147 182134.268   46 1698          - 180354.298      -   808  248s
   174   165 182371.877   49 1690          - 180354.298      -   821  252s
   192   174 182558.736   57 1736          - 180354.298      -   776  257s
   203   186 182773.314   60 1638          - 180354.298      -   758  262s
   219   209 182943.569   65 1591          - 180354.298      -   731  269s
   242   216 183178.653   70 1645          - 180354.298      -   701  274s
   251   233 183541.513   74 1595          - 180354.298      -   707  280s
   268   252 183784.414   77 1608          - 180354.298      -   691  286s
   288   270 184448.921   81 1630          - 180354.298      -   670  291s
   306   299 184775.962   87 1655          - 180354.298      -   647  296s
   335   314 185050.087   92 1640          - 180354.298      -   614  300s

Cutting planes:
  Gomory: 18
  Lift-and-project: 3
  Implied bound: 777
  Clique: 32
  MIR: 440
  StrongCG: 1
  Zero half: 232
  RLT: 202
  Relax-and-lift: 233

Explored 350 nodes (257129 simplex iterations) in 300.02 seconds (420.12 work units)
Thread count was 8 (of 8 available processors)

Solution count 0

Time limit reached
Best objective -, best bound 1.803542981696e+05, gap -
============================================================
Status: 9  Cost: inf CLP  Vehicles used: 0/17
  Fixed cost:               0 CLP
  Variable cost:            0 CLP
  MIP gap:                nan
  Runtime:              300.0 s
  Feasible:      False
============================================================
Saved to results\milp_caso_base.json
